
******************************************************************************
This program contains Ipopt, a library for large-scale nonlinear optimization.
 Ipopt is released as open source code under the Eclipse Public License (EPL).
         For more information visit https://github.com/coin-or/Ipopt
******************************************************************************

This is Ipopt version 3.14.19, running with linear solver MUMPS 5.8.1.

Number of nonzeros in equality constraint Jacobian...:     2204
Number of nonzeros in inequality constraint Jacobian.:        0
Number of nonzeros in Lagrangian Hessian.............:      525

Total number of variables............................:      647
                     variables with only lower bounds:        0
                variables with lower and upper bounds:      232
                     variables with only upper bounds:        0
Total number of equality constraints.................:      639
Total number of inequality constraints...............:        0
        inequality constraints with only lower bounds:        0
   inequality constraints with lower and upper bounds:        0
        inequality constraints with only upper bounds:        0

iter    objective    inf_pr   inf_du lg(mu)  ||d||  lg(rg) alpha_du alpha_pr  ls
   0  4.9509594e+00 9.63e+01 4.40e-04  -1.0 0.00e+00    -  0.00e+00 0.00e+00   0
   1  4.9520093e+00 6.46e+01 2.56e+01  -1.0 9.49e+01    -  1.23e-02 3.29e-01h  1
   2  4.9710337e+00 1.48e+01 1.84e+01  -1.0 6.34e+01    -  6.35e-01 7.71e-01h  1
   3  4.9803780e+00 1.07e-01 2.55e+01  -1.0 1.30e+01    -  6.54e-01 1.00e+00h  1
   4  4.9673774e+00 2.23e-01 3.75e+00  -1.0 6.37e-01    -  9.24e-01 1.00e+00h  1
   5  4.9713385e+00 1.15e-01 8.23e-03  -1.0 5.08e+00    -  1.00e+00 1.00e+00h  1
   6  4.9662371e+00 7.49e-01 2.84e-03  -2.5 1.32e+00    -  1.00e+00 1.00e+00h  1
   7  4.9577760e+00 5.65e-02 7.19e-03  -2.5 4.24e+00    -  1.00e+00 1.00e+00h  1
   8  4.9596278e+00 1.63e-03 3.33e-04  -2.5 8.07e-01    -  1.00e+00 1.00e+00h  1
   9  4.9523833e+00 4.01e-03 1.08e-01  -3.8 4.43e+00    -  6.50e-01 1.00e+00h  1
iter    objective    inf_pr   inf_du lg(mu)  ||d||  lg(rg) alpha_du alpha_pr  ls
  10  4.9482283e+00 1.74e-03 2.43e-03  -3.8 3.16e+00    -  1.00e+00 1.00e+00h  1
  11  4.9474513e+00 9.41e-05 8.43e-05  -3.8 6.15e-01    -  1.00e+00 1.00e+00h  1
  12  4.9463682e+00 1.18e-04 6.88e-04  -5.7 8.13e-01    -  9.45e-01 1.00e+00h  1
  13  4.9463124e+00 8.35e-07 3.53e-07  -5.7 3.54e-02    -  1.00e+00 1.00e+00h  1
  14  4.9462974e+00 2.30e-08 3.20e-08  -8.6 1.09e-02    -  1.00e+00 1.00e+00h  1
  15  4.9462974e+00 4.88e-14 1.32e-14  -8.6 6.28e-06    -  1.00e+00 1.00e+00h  1

Number of Iterations....: 15

                                   (scaled)                 (unscaled)
Objective...............:   4.9462973654530424e+00    4.9462973654530424e+00
Dual infeasibility......:   1.3211653993039363e-14    1.3211653993039363e-14
Constraint violation....:   4.8849813087460166e-14    4.8849813087460166e-14
Variable bound violation:   0.0000000000000000e+00    0.0000000000000000e+00
Complementarity.........:   2.5480628902118209e-09    2.5480628902118209e-09
Overall NLP error.......:   2.5480628902118209e-09    2.5480628902118209e-09


Number of objective function evaluations             = 16
Number of objective gradient evaluations             = 16
Number of equality constraint evaluations            = 16
Number of inequality constraint evaluations          = 0
Number of equality constraint Jacobian evaluations   = 16
Number of inequality constraint Jacobian evaluations = 0
Number of Lagrangian Hessian evaluations             = 15
Total seconds in IPOPT                               = 0.152

EXIT: Optimal Solution Found.
